173
0 104 94 79 109 148 57 154 133 101 
147 81 15 34 90 24 75 26 91 35 
33 30 51 3 170 139 7 171 169 156 
16 77 83 168 13 122 42 10 114 123 
117 115 40 9 54 89 59 22 112 50 
31 71 47 19 64 164 14 172 45 165 
39 49 32 145 132 2 73 128 8 125 
86 143 119 12 60 56 46 127 70 68 
1 82 74 18 52 137 62 78 93 100 
37 5 80 167 146 87 53 134 140 118 
25 120 11 105 84 21 85 159 36 141 
66 150 6 149 20 160 23 144 63 161 
103 69 126 110 157 166 102 99 98 121 
107 58 142 124 131 135 129 67 72 65 
111 113 158 163 28 106 27 162 96 61 
29 38 43 151 76 97 48 41 95 17 
152 136 4 116 92 130 108 44 88 153 
155 55 138 
